55
3 1 3
3 2 5
4 0 5
4 1 1
4 3 10
5 2 4
5 3 3
5 4 3
6 1 2
6 2 5
6 4 4
7 1 9
7 2 8
7 3 9
8 4 8
8 6 2
8 7 1
9 0 9
9 2 2
9 3 3
9 5 9
9 7 9
9 8 2
10 0 4
10 2 8
10 7 10
10 9 8
11 1 3
11 2 4
11 4 8
11 5 5
11 6 3
11 7 2
11 9 9
12 0 8
12 2 3
12 8 10
12 9 6
12 11 10
13 3 6
13 4 8
13 7 6
13 10 6
14 0 10
14 1 10
14 3 3
14 6 3
14 7 5
14 10 4
14 11 7
14 13 10
15 1 3
15 4 1
15 10 5
15 12 9
15 14 4
16 0 1
16 5 4
16 6 5
16 8 5
16 10 8
16 11 4
16 12 7
16 14 1
17 0 9
17 4 4
17 5 10
17 6 9
17 8 9
17 10 5
17 12 9
17 13 1
17 14 10
18 0 9
18 7 8
18 8 9
18 10 4
18 11 8
18 12 7
18 14 3
18 15 4
18 16 9
18 17 5
19 0 6
19 2 5
19 3 4
19 8 1
19 10 3
19 11 2
19 15 10
19 16 5
19 17 5
20 0 4
20 1 1
20 5 5
20 6 8
20 7 8
20 9 2
20 10 10
20 12 4
20 14 9
20 15 7
20 16 8
20 18 3
20 19 9
21 0 7
21 1 9
21 7 10
21 8 1
21 10 3
21 13 9
21 14 9
22 0 5
22 2 7
22 3 1
22 4 4
22 5 2
22 8 4
22 11 8
22 12 4
22 13 8
22 15 10
22 18 5
22 20 1
23 0 7
23 2 7
23 5 5
23 6 6
23 7 1
23 10 3
23 11 3
23 12 5
23 13 8
23 15 6
23 16 5
23 17 6
23 18 1
23 19 3
23 20 6
23 21 4
24 0 6
24 2 2
24 3 2
24 4 7
24 7 6
24 10 9
24 13 5
24 15 8
24 17 10
24 22 8
25 1 10
25 2 7
25 3 10
25 4 1
25 8 2
25 9 9
25 10 2
25 11 7
25 12 9
25 21 2
25 22 9
25 23 6
26 0 8
26 3 10
26 4 8
26 6 8
26 7 3
26 9 10
26 12 5
26 15 5
26 16 7
26 17 8
26 20 10
26 21 5
26 22 6
26 23 3
26 24 6
27 0 3
27 1 5
27 4 9
27 5 8
27 7 6
27 12 8
27 13 3
27 14 8
27 15 2
27 17 4
27 18 6
27 20 10
27 21 3
27 25 2
28 2 10
28 3 2
28 4 3
28 6 5
28 10 8
28 11 5
28 17 10
28 18 4
28 19 1
28 20 8
28 21 8
28 23 9
28 24 8
29 2 1
29 3 5
29 4 8
29 5 2
29 7 7
29 8 10
29 10 4
29 11 6
29 18 4
29 23 4
29 26 5
30 0 3
30 1 2
30 3 3
30 5 8
30 8 8
30 15 1
30 18 9
30 22 6
30 26 3
30 28 2
30 29 6
31 1 2
31 4 3
31 5 9
31 9 8
31 11 9
31 12 7
31 13 1
31 15 8
31 16 4
31 17 10
31 18 4
31 24 4
31 26 4
31 28 5
31 29 8
32 0 7
32 1 7
32 4 7
32 5 10
32 6 10
32 7 8
32 10 9
32 11 8
32 12 6
32 13 4
32 15 3
32 17 3
32 19 1
32 21 1
32 22 8
32 26 2
32 27 2
32 28 5
32 31 4
33 2 4
33 4 10
33 9 5
33 13 8
33 16 3
33 18 10
33 19 1
33 20 2
33 26 5
33 27 7
33 29 3
33 30 3
33 31 4
34 0 2
34 1 3
34 6 7
34 7 2
34 8 1
34 9 1
34 10 4
34 12 6
34 13 6
34 14 8
34 15 7
34 16 1
34 18 8
34 19 6
34 22 5
34 23 4
34 24 1
34 25 7
34 26 9
34 28 6
34 29 5
34 30 10
34 31 6
34 33 2
35 0 8
35 2 7
35 3 10
35 4 7
35 8 7
35 12 6
35 13 7
35 14 5
35 15 5
35 20 2
35 21 2
35 24 6
35 27 10
35 28 4
35 31 9
35 34 2
36 3 1
36 5 7
36 7 9
36 11 3
36 12 2
36 14 9
36 15 8
36 16 7
36 21 6
36 22 7
36 26 9
36 27 10
36 29 9
36 31 3
36 33 6
37 2 9
37 3 6
37 4 8
37 8 5
37 10 6
37 11 8
37 14 4
37 20 8
37 21 9
37 22 8
37 23 1
37 27 2
37 28 7
37 29 10
37 31 4
37 33 3
37 35 9
38 2 4
38 5 8
38 6 4
38 8 8
38 16 10
38 17 7
38 19 8
38 20 6
38 24 7
38 25 8
38 31 1
38 32 3
38 36 8
38 37 5
39 0 3
39 2 8
39 7 10
39 9 6
39 10 7
39 15 6
39 19 10
39 23 6
39 26 1
39 27 2
39 29 7
39 31 3
39 32 8
39 37 1
39 38 1
40 2 5
40 3 2
40 4 7
40 5 2
40 12 9
40 14 10
40 16 5
40 21 2
40 25 2
40 27 7
40 30 2
40 31 6
40 37 3
40 38 4
40 39 8
41 0 2
41 2 4
41 3 9
41 4 8
41 11 5
41 13 3
41 14 8
41 15 9
41 16 5
41 20 7
41 23 6
41 25 6
41 26 8
41 27 2
41 29 4
41 30 1
41 31 9
41 33 3
41 35 3
41 36 4
41 38 3
42 0 6
42 2 2
42 5 3
42 6 3
42 9 9
42 10 7
42 13 8
42 14 4
42 20 1
42 21 10
42 23 1
42 24 6
42 27 10
42 28 6
42 29 8
42 32 3
42 33 5
42 34 4
42 35 6
42 36 7
42 37 9
42 38 7
43 1 7
43 5 2
43 8 2
43 9 5
43 16 10
43 17 1
43 18 6
43 19 8
43 21 2
43 22 8
43 23 2
43 28 8
43 29 2
43 31 2
43 32 4
43 35 10
43 37 4
43 40 5
44 1 4
44 2 4
44 4 8
44 5 1
44 10 2
44 11 4
44 14 10
44 15 10
44 17 1
44 26 3
44 27 4
44 29 2
44 31 10
44 35 10
44 37 9
44 38 8
44 39 6
44 40 6
44 41 7
44 43 2
45 1 8
45 3 4
45 4 1
45 6 10
45 8 4
45 9 6
45 11 6
45 13 9
45 16 4
45 19 6
45 20 10
45 21 7
45 23 10
45 26 7
45 28 3
45 32 5
45 33 8
45 34 5
45 36 1
45 37 1
45 39 7
45 40 3
45 41 6
45 42 4
45 44 1
46 0 8
46 2 9
46 7 3
46 8 8
46 9 8
46 12 10
46 15 9
46 16 8
46 17 8
46 18 5
46 19 7
46 23 10
46 24 4
46 27 10
46 30 8
46 33 10
46 34 4
46 35 10
46 38 9
46 39 5
46 43 3
46 45 5
47 1 4
47 2 2
47 4 4
47 5 2
47 6 4
47 8 3
47 10 7
47 11 4
47 13 3
47 14 10
47 15 7
47 16 8
47 17 1
47 18 3
47 21 9
47 22 7
47 24 7
47 26 8
47 27 9
47 28 3
47 30 7
47 33 9
47 35 9
47 36 7
47 39 1
47 41 4
47 45 3
47 46 8
48 3 8
48 5 9
48 6 6
48 7 4
48 8 6
48 9 8
48 10 7
48 12 8
48 15 3
48 17 6
48 20 7
48 22 4
48 23 3
48 26 9
48 27 1
48 29 9
48 32 6
48 35 2
48 36 1
48 38 1
48 39 7
48 40 5
48 41 1
48 43 8
48 46 8
48 47 10
49 2 5
49 3 9
49 5 3
49 7 2
49 12 5
49 14 3
49 20 1
49 22 1
49 26 2
49 31 8
49 36 9
49 37 10
49 39 6
49 41 8
49 43 2
49 45 3
50 0 6
50 1 4
50 2 10
50 6 4
50 7 8
50 8 10
50 11 9
50 13 5
50 19 10
50 25 5
50 26 8
50 28 8
50 31 6
50 33 8
50 34 5
50 36 8
50 38 4
50 40 5
50 43 3
50 44 8
50 45 10
50 46 6
50 47 5
51 0 4
51 2 1
51 3 7
51 6 9
51 8 6
51 10 8
51 12 10
51 16 7
51 17 1
51 18 1
51 21 3
51 23 6
51 25 7
51 27 1
51 29 4
51 30 1
51 38 7
51 42 4
51 43 2
51 46 9
51 48 1
51 49 1
51 50 5
52 0 7
52 5 7
52 6 4
52 7 10
52 9 4
52 15 3
52 16 9
52 18 6
52 20 2
52 22 5
52 23 8
52 24 5
52 25 3
52 29 9
52 30 1
52 32 6
52 36 3
52 37 4
52 39 4
52 40 3
52 41 3
52 42 1
52 45 10
52 46 2
52 47 6
53 0 1
53 3 9
53 4 10
53 5 2
53 7 6
53 12 1
53 14 1
53 18 10
53 19 10
53 24 5
53 25 9
53 26 3
53 27 9
53 28 2
53 30 5
53 32 10
53 34 4
53 35 1
53 36 6
53 37 5
53 38 3
53 41 7
53 42 7
53 45 1
53 47 7
53 48 8
53 50 5
54 1 2
54 2 4
54 4 6
54 7 6
54 10 9
54 11 6
54 13 10
54 14 9
54 17 5
54 20 5
54 22 8
54 23 2
54 25 6
54 26 2
54 27 9
54 28 4
54 30 7
54 31 7
54 34 8
54 35 10
54 38 3
54 40 2
54 42 5
54 43 5
